100
128
34
4
26
20
16
21
13
7
2
10
6
23
19
1
17
5
41
60
11
45
9
7
39
13
7
11
11
16
3
4
10
1
8
7
34
33
1
51
5
3
40
16
25
7
31
6
36
3
34
26
41
1
22
14
11
24
32
8
40
31
60
12
36
58
1
3
35
42
1
12
49
47
60
55
55
53
20
52
55
18
1
2
23
58
15
11
37
39
2
31
5
45
55
1
44
33
1
37
2
36